<number of tasks>
20

<cycle time>
1000

<order strength>
0,847


<task times>
1 155
2 95
3 239
4 109
5 204
6 61
7 270
8 53
9 483
10 214
11 79
12 87
13 233
14 430
15 46
16 242
17 417
18 117
19 374
20 373

<precedence relations>
1,4
1,5
1,6
2,6
3,4
3,6
4,11
5,7
6,7
7,8
7,9
7,10
8,11
9,11
10,11
11,12
12,13
12,14
12,15
13,17
13,19
14,16
14,17
14,18
15,16
15,17
15,18
16,19
18,19
18,20

<end>
